15	53
0	2	41
0	4	12
0	8	34
0	9	4
0	11	8
0	12	24
1	2	73
1	7	15
1	8	86
1	10	71
1	12	80
2	4	14
2	7	27
2	10	78
2	13	96
2	14	49
3	4	30
3	5	80
3	6	78
3	8	79
3	9	22
3	10	79
3	14	72
4	5	7
4	7	32
4	8	87
4	11	21
4	12	28
5	6	28
5	11	9
5	12	73
5	14	10
6	7	89
6	9	34
6	10	65
6	12	80
6	13	55
7	9	77
7	10	45
7	12	74
8	10	30
8	11	8
8	12	86
8	13	38
8	14	12
9	10	44
9	11	2
9	12	56
10	12	26
10	14	40
11	13	46
11	14	68
13	14	46
